param set_len = 54;
param target_sum = 17304752620;
param values := [1] 946458723 [2] 77218165 [3] 760640678 [4] 105483003 [5] 753044824 [6] 475729615 [7] 834622481 [8] 86995732 [9] 560933199 [10] 335804530 [11] 1000832614 [12] 877230952 [13] 710431590 [14] 338244126 [15] 787086973 [16] 151073292 [17] 712058247 [18] 986503465 [19] 1039821890 [20] 390726758 [21] 678463528 [22] 135076533 [23] 362291511 [24] 689771356 [25] 106258926 [26] 480544095 [27] 938899358 [28] 395384406 [29] 318143663 [30] 613561129 [31] 832984147 [32] 636825407 [33] 549485759 [34] 995714580 [35] 43403515 [36] 964744862 [37] 1053195654 [38] 806839268 [39] 310685871 [40] 674864894 [41] 964996976 [42] 1066440552 [43] 23230179 [44] 514252639 [45] 256813030 [46] 100955689 [47] 905614556 [48] 646677006 [49] 263968610 [50] 1039676741 [51] 851729419 [52] 340365905 [53] 620464705 [54] 995105896 ;
